decision_x1=[0,99];
decision_x2=[0,99];
decision_x3=[0,99];
decision_x4=[0,99];
decision_x5=[0,99];
decision_x6=[0,99];
decision_x7=[0,99];
decision_x8=[0,99];
decision_x9=[0,99];
decision_x10=[0,99];
random_y1=[0,99];
random_y2=[0,99];
random_y3=[0,99];
random_y4=[0,99];
random_y5=[0,99];
random_y6=[0,99];
random_y7=[0,99];
random_y8=[0,99];
random_y9=[0,99];
random_y10=[0,99];
function(x5,x2)=-1.07651x5^2 7.22496x5 7.23602x2^2 9.08503x2 5.22088x5x2 1.17095;
function(x6,x3)=-2.95825x6^2 4.36908x6 -8.25195x3^2 -9.11329x3 1.87849x6x3 9.58209;
function(x7,x2)=5.62112x7^2 1.16648x7 -5.97088x2^2 -8.57601x2 -3.70489x7x2 5.63419;
function(x8,x4)=7.2714x8^2 -9.49153x8 3.85115x4^2 3.7478x4 8.78382x8x4 4.93556;
function(x8,x6)=1.07092x8^2 7.78121x8 9.97457x6^2 5.33684x6 8.20145x8x6 -7.27117;
function(x9,x2)=4.91965x9^2 1.80927x9 6.517x2^2 -3.21876x2 2.58866x9x2 7.89429;
function(x10,x1)=3.4649x10^2 -6.73652x10 -1.47375x1^2 -5.56279x1 6.33526x10x1 -9.28546;
function(x10,x5)=1.62853x10^2 1.51077x10 -8.98398x5^2 -3.50188x5 -6.92446x10x5 4.3169;
function(x10,x6)=-1.58051x10^2 4.30666x10 4.64454x6^2 -2.23349x6 2.6502x10x6 6.46007;
function(x1,y1)=6.0907x1^2 -2.44252x1 1.47597y1^2 -5.78915y1 -3.37897x1y1 -4.18204;
function(x2,y2)=-2.12778x2^2 6.37635x2 3.54539y2^2 -8.71266y2 5.99017x2y2 7.12857;
function(x3,y3)=-2.64712x3^2 -7.81543x3 -2.4573y3^2 7.2555y3 1.91009x3y3 -6.38413;
function(x4,y4)=4.50324x4^2 7.40496x4 5.39722y4^2 -1.23778y4 8.84218x4y4 3.07484;
function(x5,y5)=4.3478x5^2 -1.96632x5 -1.61676y5^2 2.03752y5 -8.12899x5y5 1.86405;
function(x6,y6)=-9.20473x6^2 3.64606x6 5.0851y6^2 5.60395y6 5.89608x6y6 1.61179;
function(x7,y7)=-8.69701x7^2 7.9627x7 1.47621y7^2 3.35637y7 8.56397x7y7 -1.85276;
function(x8,y8)=4.06769x8^2 -5.74529x8 -8.75y8^2 -3.94149y8 -5.13892x8y8 -7.52365;
function(x9,y9)=8.46226x9^2 4.22663x9 -5.27436y9^2 -2.65004y9 -4.96515x9y9 -4.16719;
function(x10,y10)=1.93526x10^2 -6.22873x10 6.40112y10^2 6.26299y10 -9.84095x10y10 9.25195;
neighbor_set_x1=x10 ;
neighbor_set_x10=x1 x5 x6 ;
neighbor_set_x2=x5 x7 x9 ;
neighbor_set_x3=x6 ;
neighbor_set_x4=x8 ;
neighbor_set_x5=x10 x2 ;
neighbor_set_x6=x10 x3 x8 ;
neighbor_set_x7=x2 ;
neighbor_set_x8=x4 x6 ;
neighbor_set_x9=x2 ;
initial_distribution_y1=[alpha:4.38913,beta:4.93807];
initial_distribution_y2=[alpha:9.31241,beta:8.41326];
initial_distribution_y3=[alpha:8.31743,beta:8.80227];
initial_distribution_y4=[alpha:4.24322,beta:7.44807];
initial_distribution_y5=[alpha:9.98124,beta:4.95541];
initial_distribution_y6=[alpha:8.25262,beta:6.95113];
initial_distribution_y7=[alpha:6.71544,beta:6.47261];
initial_distribution_y8=[alpha:7.53035,beta:6.52418];
initial_distribution_y9=[alpha:7.5713,beta:9.06462];
initial_distribution_y10=[alpha:5.19588,beta:9.55569];
transition_y1=[alpha:5.74114];
transition_y2=[alpha:4.00403];
transition_y3=[alpha:9.21763];
transition_y4=[alpha:5.16704];
transition_y5=[alpha:9.23235];
transition_y6=[alpha:5.50585];
transition_y7=[alpha:5.16504];
transition_y8=[alpha:4.38552];
transition_y9=[alpha:8.32494];
transition_y10=[alpha:4.98265];
